70 752
1 23 38 22 63 66 6 43 17 9 27 46 40 61 45 25 39 62 54 48 11 64 65 51 56 67 33 21 34 12 60 52 10 50 58 37 16 47 5 53 4 18 42 41 44 68 30 20 14 28 8 55 49 26 3 32 2 7 19 24 15 57 59 35 69 31 70 13 29 36 
